HUN,8,6,775
1,6,2,3,0,27,5,29,4,4,3,4
1,22,0,18,2,29,5,24,4,14,3,23
2,3,1,25,0,7,3,20,4,27,5,20
0,4,2,3,1,5,4,6,3,7,5,27
0,15,1,7,2,27,5,12,3,6,4,1
2,4,1,2,0,4,3,25,5,10,4,22
2,5,0,27,1,5,4,6,3,6,5,10
0,12,1,16,2,28,4,11,5,17,3,5
